unsat
(:added-eqs                   206003
 :arith-eq-adapter            1593
 :arith-bound-propagations-lp 16332
 :arith-conflicts             21
 :arith-diseq                 11626
 :arith-fixed-eqs             7443
 :arith-lower                 14162
 :arith-make-feasible         6425
 :arith-max-columns           613
 :arith-max-rows              279
 :arith-offset-eqs            6473
 :arith-upper                 17552
 :binary-propagations         505097
 :conflicts                   2786
 :decisions                   160250
 :del-clause                  4896
 :elim-unconstrained          2
 :max-memory                  27.04
 :memory                      21.20
 :minimized-lits              5330
 :mk-bool-var                 8314
 :mk-clause                   6394
 :mk-clause-binary            8045
 :num-allocs                  32310070
 :num-checks                  1
 :propagations                652340
 :restarts                    23
 :rlimit-count                8162822
 :time                        3.38
 :total-time                  3.53)
